80 878893665
47 14 67 13 68 38 50 59 52 43 20 34 1 78 31 79 40 56 3 54 7 11 64 27 61 74 12 28 71 58 72 76 9 80 73 65 35 10 23 8 42 21 32 15 33 4 63 24 22 5 69 45 53 29 44 2 51 49 66 16 48 6 62 25 30 60 19 46 70 55 18 17 41 26 77 39 75 36 37 57 
